;test regex pattern = (".*(\\d{2}\\s\\w+\\s\\d{2}\\s)+.*"); \\ Not sure about whitespace at the end
(declare-const X String)
(assert (str.in_re X (re.++ (str.to_re "p") (re.++ (str.to_re "a") (re.++ (str.to_re "t") (re.++ (str.to_re "t") (re.++ (str.to_re "e") (re.++ (str.to_re "r") (re.++ (str.to_re "n") (re.++ (str.to_re " ") (re.++ (str.to_re "=") (re.++ (str.to_re " ") (re.++ (re.++ (str.to_re "\u{22}") (re.++ (re.* (re.diff re.allchar (str.to_re "\n"))) (re.++ (re.+ (re.++ (str.to_re "\\") (re.++ ((_ re.loop 2 2) (str.to_re "d")) (re.++ (str.to_re "\\") (re.++ (str.to_re "s") (re.++ (str.to_re "\\") (re.++ (re.+ (str.to_re "w")) (re.++ (str.to_re "\\") (re.++ (str.to_re "s") (re.++ (str.to_re "\\") (re.++ ((_ re.loop 2 2) (str.to_re "d")) (re.++ (str.to_re "\\") (str.to_re "s"))))))))))))) (re.++ (re.* (re.diff re.allchar (str.to_re "\n"))) (str.to_re "\u{22}"))))) (re.++ (str.to_re ";") (re.++ (str.to_re " ") (re.++ (str.to_re "\\") (re.++ (str.to_re " ") (re.++ (str.to_re "N") (re.++ (str.to_re "o") (re.++ (str.to_re "t") (re.++ (str.to_re " ") (re.++ (str.to_re "s") (re.++ (str.to_re "u") (re.++ (str.to_re "r") (re.++ (str.to_re "e") (re.++ (str.to_re " ") (re.++ (str.to_re "a") (re.++ (str.to_re "b") (re.++ (str.to_re "o") (re.++ (str.to_re "u") (re.++ (str.to_re "t") (re.++ (str.to_re " ") (re.++ (str.to_re "w") (re.++ (str.to_re "h") (re.++ (str.to_re "i") (re.++ (str.to_re "t") (re.++ (str.to_re "e") (re.++ (str.to_re "s") (re.++ (str.to_re "p") (re.++ (str.to_re "a") (re.++ (str.to_re "c") (re.++ (str.to_re "e") (re.++ (str.to_re " ") (re.++ (str.to_re "a") (re.++ (str.to_re "t") (re.++ (str.to_re " ") (re.++ (str.to_re "t") (re.++ (str.to_re "h") (re.++ (str.to_re "e") (re.++ (str.to_re " ") (re.++ (str.to_re "e") (re.++ (str.to_re "n") (str.to_re "d")))))))))))))))))))))))))))))))))))))))))))))))))))))
; sanitize danger characters:  < > ' " &
(assert (not (str.in_re X (re.++ re.all (re.union (str.to_re "\u{3c}") (str.to_re "\u{3e}") (str.to_re "\u{27}") (str.to_re "\u{22}") (str.to_re "\u{26}")) re.all))))
(assert (< 20 (str.len X)))
(check-sat)
(get-model)